
--- Job 6_node_3.gms Start 01/06/22 16:37:52 35.1.0 r82a9585 WEX-WEI x86 64bit/MS Windows
--- Applying:
    C:\GAMS\35\gmsprmNT.txt
--- GAMS Parameters defined
    Input "Z:\MitarbeiterOrdner\Bernecker\GitHub Desktop Project Foulder\SARO-Dunkelflaute\ARO_6nodeTest\6_node_3.gms"
    PageSize 0
    ScrDir "Z:\MitarbeiterOrdner\Bernecker\GitHub Desktop Project Foulder\SARO-Dunkelflaute\ARO_6nodeTest\225a\"
    SysDir C:\GAMS\35\
    LogOption 3
    ErrMsg 1
    ErrorLog 99
    IDE 1
    LstTitleLeftAligned 1
Licensee: Small MUD - 5 User License                     S201118/0001AN-WIN
          BTU Cottbus-Senftenberg, FG Energiewirtschaft              DC5591
          C:\Users\Max Bernecker\Documents\GAMS\gamslice.txt
GAMS 35.1.0   Copyright (C) 1987-2021 GAMS Development. All rights reserved
--- Starting compilation
--- 6_node_3.gms(224) 3 Mb
--- Starting execution: elapsed 0:00:00.019
--- Generating MIP model Master
--- 6_node_3.gms(223) 4 Mb
---   1,515 rows  632 columns  3,902 non-zeroes
---   6 discrete-columns
--- Executing CPLEX (Solvelink=2): elapsed 0:00:00.082

IBM ILOG CPLEX   35.1.0 r82a9585 Released Apr 29, 2021 WEI x86 64bit/MS Window

--- GAMS/Cplex Link licensed for continuous and discrete problems.
--- Space for names approximately 0.06 Mb
--- Use option 'names no' to turn use of names off
--- GMO memory 0.74 Mb (peak 0.75 Mb)
--- Dictionary memory 0.00 Mb
--- Cplex 20.1.0.1 link memory 0.03 Mb (peak 0.15 Mb)
--- Starting Cplex

Version identifier: 20.1.0.1 | 2021-04-07 | 3a818710c
CPXPARAM_Advance                                 0
CPXPARAM_Threads                                 1
CPXPARAM_MIP_Display                             4
CPXPARAM_MIP_Tolerances_AbsMIPGap                0
Generic callback                                 0x50
Tried aggregator 2 times.
MIP Presolve eliminated 865 rows and 98 columns.
MIP Presolve modified 818 coefficients.
Aggregator did 48 substitutions.
Reduced MIP has 601 rows, 486 columns, and 2142 nonzeros.
Reduced MIP has 6 binaries, 0 generals, 0 SOSs, and 0 indicators.
Presolve time = 0.00 sec. (2.82 ticks)
Found incumbent of value 3.5709120e+07 after 0.00 sec. (3.45 ticks)
Probing fixed 0 vars, tightened 24 bounds.
Probing time = 0.00 sec. (0.11 ticks)
Tried aggregator 1 time.
Detecting symmetries...
MIP Presolve added 276 rows and 0 columns.
Reduced MIP has 877 rows, 486 columns, and 2694 nonzeros.
Reduced MIP has 6 binaries, 0 generals, 0 SOSs, and 0 indicators.
Presolve time = 0.00 sec. (3.45 ticks)
Probing time = 0.00 sec. (0.11 ticks)
Clique table members: 2.
MIP emphasis: balance optimality and feasibility.
MIP search method: dynamic search.
Parallel mode: none, using 1 thread.
Initializing dual steep norms . . .

Iteration log . . .
Iteration:     1   Dual objective     =             0.000000
Iteration:   110   Dual objective     =        265776.325000
Iteration:   204   Dual objective     =        789916.000000
Iteration:   307   Dual objective     =        859971.250000
Iteration:   393   Dual objective     =       1292015.652299
Root relaxation solution time = 0.01 sec. (7.63 ticks)

        Nodes                                         Cuts/
   Node  Left     Objective  IInf  Best Integer    Best Bound    ItCnt     Gap

*     0+    0                       3.57091e+07        0.0000           100.00%
Found incumbent of value 3.5709120e+07 after 0.01 sec. (15.46 ticks)
      0     0  1709208.1000     2   3.57091e+07  1709208.1000      465   95.21%
*     0+    0                      3910171.4000  1709208.1000            56.29%
Found incumbent of value 3910171.400000 after 0.01 sec. (17.20 ticks)
      0     0  2483170.3911     2  3910171.4000     Cuts: 256      588   36.49%
*     0+    0                      3041433.6000  2483170.3911            18.36%
Found incumbent of value 3041433.600000 after 0.01 sec. (24.47 ticks)
      0     0  2509002.1274     4  3041433.6000     Cuts: 168      700   17.51%
      0     0  2587234.8983     3  3041433.6000      Cuts: 96      750   14.93%
      0     0  2622944.5273     4  3041433.6000     Cuts: 120      779   13.76%
      0     0  2662230.1670     5  3041433.6000     Cuts: 319      910   12.47%
Detecting symmetries...
      0     0  2699718.7012     4  3041433.6000      Cuts: 49      948   11.24%
Detecting symmetries...
      0     2  2699718.7012     4  3041433.6000  2705895.2667      948   11.03%
Elapsed time = 0.06 sec. (76.82 ticks, tree = 0.01 MB, solutions = 3)

Implied bound cuts applied:  24
Flow cuts applied:  131
Mixed integer rounding cuts applied:  96

Root node processing (before b&c):
  Real time             =    0.06 sec. (76.83 ticks)
Sequential b&c:
  Real time             =    0.00 sec. (9.23 ticks)
                          ------------
Total (root+branch&cut) =    0.06 sec. (86.06 ticks)

--- MIP status (101): integer optimal solution.
--- Cplex Time: 0.06sec (det. 86.06 ticks)

--- Fixing integer variables and solving final LP...

Version identifier: 20.1.0.1 | 2021-04-07 | 3a818710c
CPXPARAM_Advance                                 2
CPXPARAM_Threads                                 1
CPXPARAM_MIP_Display                             4
CPXPARAM_MIP_Tolerances_AbsMIPGap                0
Tried aggregator 1 time.
LP Presolve eliminated 1298 rows and 296 columns.
Aggregator did 96 substitutions.
Reduced LP has 120 rows, 240 columns, and 408 nonzeros.
Presolve time = 0.00 sec. (0.95 ticks)
Symmetry aggregator did 345 additional substitutions.
Initializing dual steep norms . . .

Iteration log . . .
Iteration:     1   Dual objective     =       2238600.000000

Dual crossover.
  Dual:  Fixed no variables.
  Primal:  Fixed no variables.

--- Fixed MIP status (1): optimal.
--- Cplex Time: 0.02sec (det. 1.59 ticks)


Proven optimal solution
MIP Solution:      3041433.600000    (1361 iterations, 5 nodes)
Final Solve:       3041433.600000    (4 iterations)

Best possible:     3041433.600000
Absolute gap:            0.000000
Relative gap:            0.000000

--- Reading solution for model Master
--- Executing after solve: elapsed 0:00:00.259
--- 6_node_3.gms(224) 4 Mb
--- GDX File (execute_unload) Z:\MitarbeiterOrdner\Bernecker\GitHub Desktop Project Foulder\SARO-Dunkelflaute\ARO_6nodeTest\check_Master3.gdx
*** Status: Normal completion
--- Job 6_node_3.gms Stop 01/06/22 16:37:52 elapsed 0:00:00.309
